SYSTEM = bi2
IALGO = 48
ISTART = 0
ICHARG = 2
ISMEAR = -5
EDIFF = 0.0001
EDIFFG = 0.01
ENCUT = 200
IBRION = -1
ISIF = 3
SIGMA = 0.2
LREAL = .FALSE.
NELM = 100
NELMIN = 4
NPAR = 6
NSW = 0
PREC = Accurate
LWAVE = .FALSE.
LCHARG = .TRUE.
!!!!!!S0!!!!!!!!!
LSORBIT = .TRUE.
LNONCOLLINEAR = .TRUE.
ISPIN = 1
LMAXMIX = 6
MAGMOM = 0 0 0 0 0 0
SAXIS = 0 0 1
NBANDS = 24
GGA_COMPAT = .FALSE.
ISYM = 0
AMIX  = 0.2
BMIX  = 1E-5
AMIX_MAG  = 0.8
BMIX_MAG  =  1E-5
